============================[ Problem Statistics ]=============================|                                                                             ||  Number of variables:          4242                                         ||  Number of clauses:            9883                                         ||  Parse time:                   0.29 s                                       ||                                                                             |============================[ Search Statistics ]==============================| Conflicts |          ORIGINAL         |          LEARNT          | Progress ||           |    Vars  Clauses Literals |    Limit  Clauses Lit/Cl |          |===============================================================================|       100 |    1591     6088   433409 |     2232      100     53 | 62.501 % |===============================================================================restarts              : 2conflicts             : 165            (369 /sec)decisions             : 333            (0.00 % random) (745 /sec)propagations          : 9988           (22345 /sec)conflict literals     : 11018          (95.32 % deleted)CPU time              : 0.447 sSATISFIABLE